<number of tasks>
100

<cycle time>
1000

<order strength>
0.896


<task times>
1 295
2 509
3 423
4 487
5 683
6 439
7 342
8 425
9 438
10 384
11 582
12 520
13 388
14 609
15 760
16 350
17 575
18 580
19 428
20 527
21 354
22 605
23 665
24 488
25 723
26 593
27 478
28 377
29 485
30 452
31 415
32 464
33 379
34 569
35 463
36 444
37 645
38 589
39 415
40 549
41 423
42 516
43 432
44 574
45 383
46 484
47 351
48 540
49 450
50 716
51 559
52 338
53 463
54 361
55 661
56 456
57 655
58 366
59 361
60 665
61 552
62 737
63 381
64 355
65 424
66 287
67 745
68 534
69 444
70 434
71 728
72 508
73 594
74 562
75 502
76 642
77 513
78 409
79 564
80 406
81 667
82 614
83 253
84 498
85 458
86 551
87 572
88 745
89 554
90 460
91 333
92 310
93 535
94 138
95 345
96 665
97 361
98 747
99 666
100 492

<precedence relations>
1,3
1,4
2,3
2,4
3,5
3,6
3,7
4,5
4,6
4,7
5,8
5,9
6,8
6,9
7,8
7,9
8,10
8,11
8,12
8,13
9,10
9,11
9,12
9,13
10,14
10,15
10,16
10,17
11,14
11,15
11,16
11,17
12,14
12,15
12,16
12,17
13,14
13,15
13,16
13,17
14,18
14,19
14,20
14,21
14,22
15,18
15,19
15,20
15,21
15,22
16,18
16,19
16,20
16,21
16,22
17,18
17,19
17,20
17,21
17,22
18,23
18,24
18,25
19,23
19,24
19,25
20,23
20,24
20,25
21,23
21,24
21,25
22,23
22,24
22,25
23,26
23,27
23,28
23,29
24,26
24,27
24,28
24,29
25,26
25,27
25,28
25,29
26,30
26,31
26,32
27,30
27,31
27,32
28,30
28,31
28,32
29,30
29,31
29,32
30,33
30,34
30,35
30,36
30,37
31,33
31,34
31,35
31,36
31,37
32,33
32,34
32,35
32,36
32,37
33,38
33,39
33,40
33,41
34,38
34,39
34,40
34,41
35,38
35,39
35,40
35,41
36,38
36,39
36,40
36,41
37,38
37,39
37,40
37,41
38,42
38,43
38,44
38,45
38,46
39,44
39,45
39,46
39,47
40,42
40,45
41,42
41,43
41,45
41,46
41,47
42,48
43,48
43,49
43,50
44,86
44,93
45,48
45,49
45,50
46,48
46,49
46,50
47,48
47,49
47,50
48,51
48,52
49,51
49,52
50,51
50,52
51,53
51,54
52,68
53,55
53,58
53,62
54,56
54,57
55,69
56,84
56,90
57,59
57,60
57,61
57,62
58,59
58,60
59,65
59,66
60,63
60,64
61,63
61,64
62,63
62,64
62,66
63,68
63,69
64,70
64,88
65,67
65,68
66,69
67,70
67,72
68,73
68,74
68,77
69,70
69,71
69,72
69,73
70,94
70,95
71,75
72,81
72,83
73,88
73,90
74,78
74,80
75,76
75,77
75,78
76,80
77,82
78,79
78,81
78,88
79,83
79,86
80,84
80,85
80,86
80,87
81,85
81,87
81,91
82,85
82,88
83,100
84,91
86,89
87,90
87,92
88,98
89,92
89,97
90,93
91,92
92,95
93,94
93,96
93,97
94,99
95,99
95,100
96,98
96,99

<end>
